data/solutions/recovery/wellformed/moderate/flexible/wellformed_moderate_instance53/28.sol
Elapsed time: 0.02
Upper bound: 4285.0
Planning weighted value: 132933.0
C[0]=4285.0
C[1]=4201.0
C[2]=4038.0
C[3]=3950.0
C[4]=3865.0
y[0]=3
y[1]=2
y[2]=2
y[3]=0
y[4]=1
y[5]=3
y[6]=4
y[7]=3
y[8]=4
y[9]=3
y[10]=4
y[11]=0
y[12]=2
y[13]=0
y[14]=2
y[15]=2
y[16]=1
y[17]=4
y[18]=1
y[19]=2
