data/solutions/recovery/wellformed/moderate/flexible/wellformed_moderate_instance53/28.log

Log started (V12.6.3.0) Fri Apr 20 20:56:37 2018

New value for default parallel thread count: 1

Problem '/tmp/tmpmT99Um.pyomo.lp' read.
Read time = 0.00 sec. (0.03 ticks)

Problem name         : /tmp/tmpmT99Um.pyomo.lp
Objective sense      : Minimize
Variables            :     107  [Nneg: 1,  Binary: 100,  General Integer: 6]
Objective nonzeros   :       1
Linear constraints   :      51  [Less: 25,  Equal: 26]
  Nonzeros           :    1811
  RHS nonzeros       :      41

Variables            : Min LB: 0.000000         Max UB: 1.000000       
Objective nonzeros   : Min   : 1.000000         Max   : 1.000000       
Linear constraints   :
  Nonzeros           : Min   : 1.000000         Max   : 1636.000       
  RHS nonzeros       : Min   : 1.000000         Max   : 2.000000       
Tried aggregator 2 times.
MIP Presolve eliminated 20 rows and 5 columns.
Aggregator did 6 substitutions.
Reduced MIP has 25 rows, 96 columns, and 271 nonzeros.
Reduced MIP has 95 binaries, 1 generals, 0 SOSs, and 0 indicators.
Presolve time = 0.00 sec. (0.73 ticks)
Found incumbent of value 20339.000000 after 0.00 sec. (0.90 ticks)
Probing time = 0.00 sec. (0.08 ticks)
Cover probing fixed 0 vars, tightened 3 bounds.
Tried aggregator 1 time.
Reduced MIP has 25 rows, 96 columns, and 271 nonzeros.
Reduced MIP has 95 binaries, 1 generals, 0 SOSs, and 0 indicators.
Presolve time = 0.00 sec. (0.19 ticks)
Probing time = 0.00 sec. (0.06 ticks)
Clique table members: 19.
MIP emphasis: balance optimality and feasibility.
MIP search method: dynamic search.
Parallel mode: none, using 1 thread.
Root relaxation solution time = 0.00 sec. (0.08 ticks)

        Nodes                                         Cuts/
   Node  Left     Objective  IInf  Best Integer    Best Bound    ItCnt     Gap

*     0+    0                        20339.0000     1636.0000            91.96%
      0     0     4067.8000     9    20339.0000     4067.8000        6   80.00%
*     0+    0                         4380.0000     4067.8000             7.13%
      0     0     4110.8565    13     4380.0000       Cuts: 5       26    6.14%
*     0+    0                         4295.0000     4110.8565             4.29%
      0     0     4144.4306    19     4295.0000      Cuts: 11       67    3.51%
*     0+    0                         4285.0000     4144.4306             3.28%
      0     0     4177.3317    21     4285.0000    MIRcuts: 3       88    2.51%
      0     0        cutoff           4285.0000                     96    0.00%
Elapsed time = 0.01 sec. (5.12 ticks, tree = 0.01 MB, solutions = 4)

Cover cuts applied:  1
Flow cuts applied:  1
Mixed integer rounding cuts applied:  6
Zero-half cuts applied:  1
Gomory fractional cuts applied:  2

Root node processing (before b&c):
  Real time             =    0.01 sec. (5.13 ticks)
Sequential b&c:
  Real time             =    0.00 sec. (0.00 ticks)
                          ------------
Total (root+branch&cut) =    0.01 sec. (5.13 ticks)

Solution pool: 4 solutions saved.

MIP - Integer optimal solution:  Objective =  4.2850000000e+03
Solution time =    0.01 sec.  Iterations = 96  Nodes = 0
Deterministic time = 5.13 ticks  (599.97 ticks/sec)


Incumbent solution written to file '/tmp/tmp0PA3iT.cplex.sol'.
